(set-logic QF_LRA)
(declare-fun X0 () Real )
(declare-fun Y0 () Real )
(declare-fun X1 () Real )
(declare-fun Y1 () Real )
(declare-fun X2 () Real )
(declare-fun Y2 () Real )
(declare-fun X3 () Real )
(declare-fun Y3 () Real )
(declare-fun X4 () Real )
(declare-fun Y4 () Real )
(declare-fun X5 () Real )
(declare-fun Y5 () Real )
(declare-fun X6 () Real )
(declare-fun Y6 () Real )
(declare-fun X7 () Real )
(declare-fun Y7 () Real )
(declare-fun X8 () Real )
(declare-fun Y8 () Real )
(declare-fun X9 () Real )
(declare-fun Y9 () Real )
(declare-fun X10 () Real )
(declare-fun Y10 () Real )
(declare-fun X11 () Real )
(declare-fun Y11 () Real )
(declare-fun Z () Real )
(assert ( and  
( or ( <= ( + X0 96 ) X1 )  ( <= ( + X1 86 ) X0 )  ( <= ( + Y0 36 ) Y1 )  ( <= ( + Y1 34 ) Y0 )  )
( or ( <= ( + X0 96 ) X2 )  ( <= ( + X2 48 ) X0 )  ( <= ( + Y0 36 ) Y2 )  ( <= ( + Y2 61 ) Y0 )  )
( or ( <= ( + X0 96 ) X3 )  ( <= ( + X3 37 ) X0 )  ( <= ( + Y0 36 ) Y3 )  ( <= ( + Y3 20 ) Y0 )  )
( or ( <= ( + X0 96 ) X4 )  ( <= ( + X4 4 ) X0 )  ( <= ( + Y0 36 ) Y4 )  ( <= ( + Y4 62 ) Y0 )  )
( or ( <= ( + X0 96 ) X5 )  ( <= ( + X5 56 ) X0 )  ( <= ( + Y0 36 ) Y5 )  ( <= ( + Y5 81 ) Y0 )  )
( or ( <= ( + X0 96 ) X6 )  ( <= ( + X6 50 ) X0 )  ( <= ( + Y0 36 ) Y6 )  ( <= ( + Y6 99 ) Y0 )  )
( or ( <= ( + X0 96 ) X7 )  ( <= ( + X7 5 ) X0 )  ( <= ( + Y0 36 ) Y7 )  ( <= ( + Y7 91 ) Y0 )  )
( or ( <= ( + X0 96 ) X8 )  ( <= ( + X8 45 ) X0 )  ( <= ( + Y0 36 ) Y8 )  ( <= ( + Y8 54 ) Y0 )  )
( or ( <= ( + X0 96 ) X9 )  ( <= ( + X9 91 ) X0 )  ( <= ( + Y0 36 ) Y9 )  ( <= ( + Y9 65 ) Y0 )  )
( or ( <= ( + X0 96 ) X10 )  ( <= ( + X10 52 ) X0 )  ( <= ( + Y0 36 ) Y10 )  ( <= ( + Y10 40 ) Y0 )  )
( or ( <= ( + X0 96 ) X11 )  ( <= ( + X11 64 ) X0 )  ( <= ( + Y0 36 ) Y11 )  ( <= ( + Y11 80 ) Y0 )  )
( or ( <= ( + X1 86 ) X2 )  ( <= ( + X2 48 ) X1 )  ( <= ( + Y1 34 ) Y2 )  ( <= ( + Y2 61 ) Y1 )  )
( or ( <= ( + X1 86 ) X3 )  ( <= ( + X3 37 ) X1 )  ( <= ( + Y1 34 ) Y3 )  ( <= ( + Y3 20 ) Y1 )  )
( or ( <= ( + X1 86 ) X4 )  ( <= ( + X4 4 ) X1 )  ( <= ( + Y1 34 ) Y4 )  ( <= ( + Y4 62 ) Y1 )  )
( or ( <= ( + X1 86 ) X5 )  ( <= ( + X5 56 ) X1 )  ( <= ( + Y1 34 ) Y5 )  ( <= ( + Y5 81 ) Y1 )  )
( or ( <= ( + X1 86 ) X6 )  ( <= ( + X6 50 ) X1 )  ( <= ( + Y1 34 ) Y6 )  ( <= ( + Y6 99 ) Y1 )  )
( or ( <= ( + X1 86 ) X7 )  ( <= ( + X7 5 ) X1 )  ( <= ( + Y1 34 ) Y7 )  ( <= ( + Y7 91 ) Y1 )  )
( or ( <= ( + X1 86 ) X8 )  ( <= ( + X8 45 ) X1 )  ( <= ( + Y1 34 ) Y8 )  ( <= ( + Y8 54 ) Y1 )  )
( or ( <= ( + X1 86 ) X9 )  ( <= ( + X9 91 ) X1 )  ( <= ( + Y1 34 ) Y9 )  ( <= ( + Y9 65 ) Y1 )  )
( or ( <= ( + X1 86 ) X10 )  ( <= ( + X10 52 ) X1 )  ( <= ( + Y1 34 ) Y10 )  ( <= ( + Y10 40 ) Y1 )  )
( or ( <= ( + X1 86 ) X11 )  ( <= ( + X11 64 ) X1 )  ( <= ( + Y1 34 ) Y11 )  ( <= ( + Y11 80 ) Y1 )  )
( or ( <= ( + X2 48 ) X3 )  ( <= ( + X3 37 ) X2 )  ( <= ( + Y2 61 ) Y3 )  ( <= ( + Y3 20 ) Y2 )  )
( or ( <= ( + X2 48 ) X4 )  ( <= ( + X4 4 ) X2 )  ( <= ( + Y2 61 ) Y4 )  ( <= ( + Y4 62 ) Y2 )  )
( or ( <= ( + X2 48 ) X5 )  ( <= ( + X5 56 ) X2 )  ( <= ( + Y2 61 ) Y5 )  ( <= ( + Y5 81 ) Y2 )  )
( or ( <= ( + X2 48 ) X6 )  ( <= ( + X6 50 ) X2 )  ( <= ( + Y2 61 ) Y6 )  ( <= ( + Y6 99 ) Y2 )  )
( or ( <= ( + X2 48 ) X7 )  ( <= ( + X7 5 ) X2 )  ( <= ( + Y2 61 ) Y7 )  ( <= ( + Y7 91 ) Y2 )  )
( or ( <= ( + X2 48 ) X8 )  ( <= ( + X8 45 ) X2 )  ( <= ( + Y2 61 ) Y8 )  ( <= ( + Y8 54 ) Y2 )  )
( or ( <= ( + X2 48 ) X9 )  ( <= ( + X9 91 ) X2 )  ( <= ( + Y2 61 ) Y9 )  ( <= ( + Y9 65 ) Y2 )  )
( or ( <= ( + X2 48 ) X10 )  ( <= ( + X10 52 ) X2 )  ( <= ( + Y2 61 ) Y10 )  ( <= ( + Y10 40 ) Y2 )  )
( or ( <= ( + X2 48 ) X11 )  ( <= ( + X11 64 ) X2 )  ( <= ( + Y2 61 ) Y11 )  ( <= ( + Y11 80 ) Y2 )  )
( or ( <= ( + X3 37 ) X4 )  ( <= ( + X4 4 ) X3 )  ( <= ( + Y3 20 ) Y4 )  ( <= ( + Y4 62 ) Y3 )  )
( or ( <= ( + X3 37 ) X5 )  ( <= ( + X5 56 ) X3 )  ( <= ( + Y3 20 ) Y5 )  ( <= ( + Y5 81 ) Y3 )  )
( or ( <= ( + X3 37 ) X6 )  ( <= ( + X6 50 ) X3 )  ( <= ( + Y3 20 ) Y6 )  ( <= ( + Y6 99 ) Y3 )  )
( or ( <= ( + X3 37 ) X7 )  ( <= ( + X7 5 ) X3 )  ( <= ( + Y3 20 ) Y7 )  ( <= ( + Y7 91 ) Y3 )  )
( or ( <= ( + X3 37 ) X8 )  ( <= ( + X8 45 ) X3 )  ( <= ( + Y3 20 ) Y8 )  ( <= ( + Y8 54 ) Y3 )  )
( or ( <= ( + X3 37 ) X9 )  ( <= ( + X9 91 ) X3 )  ( <= ( + Y3 20 ) Y9 )  ( <= ( + Y9 65 ) Y3 )  )
( or ( <= ( + X3 37 ) X10 )  ( <= ( + X10 52 ) X3 )  ( <= ( + Y3 20 ) Y10 )  ( <= ( + Y10 40 ) Y3 )  )
( or ( <= ( + X3 37 ) X11 )  ( <= ( + X11 64 ) X3 )  ( <= ( + Y3 20 ) Y11 )  ( <= ( + Y11 80 ) Y3 )  )
( or ( <= ( + X4 4 ) X5 )  ( <= ( + X5 56 ) X4 )  ( <= ( + Y4 62 ) Y5 )  ( <= ( + Y5 81 ) Y4 )  )
( or ( <= ( + X4 4 ) X6 )  ( <= ( + X6 50 ) X4 )  ( <= ( + Y4 62 ) Y6 )  ( <= ( + Y6 99 ) Y4 )  )
( or ( <= ( + X4 4 ) X7 )  ( <= ( + X7 5 ) X4 )  ( <= ( + Y4 62 ) Y7 )  ( <= ( + Y7 91 ) Y4 )  )
( or ( <= ( + X4 4 ) X8 )  ( <= ( + X8 45 ) X4 )  ( <= ( + Y4 62 ) Y8 )  ( <= ( + Y8 54 ) Y4 )  )
( or ( <= ( + X4 4 ) X9 )  ( <= ( + X9 91 ) X4 )  ( <= ( + Y4 62 ) Y9 )  ( <= ( + Y9 65 ) Y4 )  )
( or ( <= ( + X4 4 ) X10 )  ( <= ( + X10 52 ) X4 )  ( <= ( + Y4 62 ) Y10 )  ( <= ( + Y10 40 ) Y4 )  )
( or ( <= ( + X4 4 ) X11 )  ( <= ( + X11 64 ) X4 )  ( <= ( + Y4 62 ) Y11 )  ( <= ( + Y11 80 ) Y4 )  )
( or ( <= ( + X5 56 ) X6 )  ( <= ( + X6 50 ) X5 )  ( <= ( + Y5 81 ) Y6 )  ( <= ( + Y6 99 ) Y5 )  )
( or ( <= ( + X5 56 ) X7 )  ( <= ( + X7 5 ) X5 )  ( <= ( + Y5 81 ) Y7 )  ( <= ( + Y7 91 ) Y5 )  )
( or ( <= ( + X5 56 ) X8 )  ( <= ( + X8 45 ) X5 )  ( <= ( + Y5 81 ) Y8 )  ( <= ( + Y8 54 ) Y5 )  )
( or ( <= ( + X5 56 ) X9 )  ( <= ( + X9 91 ) X5 )  ( <= ( + Y5 81 ) Y9 )  ( <= ( + Y9 65 ) Y5 )  )
( or ( <= ( + X5 56 ) X10 )  ( <= ( + X10 52 ) X5 )  ( <= ( + Y5 81 ) Y10 )  ( <= ( + Y10 40 ) Y5 )  )
( or ( <= ( + X5 56 ) X11 )  ( <= ( + X11 64 ) X5 )  ( <= ( + Y5 81 ) Y11 )  ( <= ( + Y11 80 ) Y5 )  )
( or ( <= ( + X6 50 ) X7 )  ( <= ( + X7 5 ) X6 )  ( <= ( + Y6 99 ) Y7 )  ( <= ( + Y7 91 ) Y6 )  )
( or ( <= ( + X6 50 ) X8 )  ( <= ( + X8 45 ) X6 )  ( <= ( + Y6 99 ) Y8 )  ( <= ( + Y8 54 ) Y6 )  )
( or ( <= ( + X6 50 ) X9 )  ( <= ( + X9 91 ) X6 )  ( <= ( + Y6 99 ) Y9 )  ( <= ( + Y9 65 ) Y6 )  )
( or ( <= ( + X6 50 ) X10 )  ( <= ( + X10 52 ) X6 )  ( <= ( + Y6 99 ) Y10 )  ( <= ( + Y10 40 ) Y6 )  )
( or ( <= ( + X6 50 ) X11 )  ( <= ( + X11 64 ) X6 )  ( <= ( + Y6 99 ) Y11 )  ( <= ( + Y11 80 ) Y6 )  )
( or ( <= ( + X7 5 ) X8 )  ( <= ( + X8 45 ) X7 )  ( <= ( + Y7 91 ) Y8 )  ( <= ( + Y8 54 ) Y7 )  )
( or ( <= ( + X7 5 ) X9 )  ( <= ( + X9 91 ) X7 )  ( <= ( + Y7 91 ) Y9 )  ( <= ( + Y9 65 ) Y7 )  )
( or ( <= ( + X7 5 ) X10 )  ( <= ( + X10 52 ) X7 )  ( <= ( + Y7 91 ) Y10 )  ( <= ( + Y10 40 ) Y7 )  )
( or ( <= ( + X7 5 ) X11 )  ( <= ( + X11 64 ) X7 )  ( <= ( + Y7 91 ) Y11 )  ( <= ( + Y11 80 ) Y7 )  )
( or ( <= ( + X8 45 ) X9 )  ( <= ( + X9 91 ) X8 )  ( <= ( + Y8 54 ) Y9 )  ( <= ( + Y9 65 ) Y8 )  )
( or ( <= ( + X8 45 ) X10 )  ( <= ( + X10 52 ) X8 )  ( <= ( + Y8 54 ) Y10 )  ( <= ( + Y10 40 ) Y8 )  )
( or ( <= ( + X8 45 ) X11 )  ( <= ( + X11 64 ) X8 )  ( <= ( + Y8 54 ) Y11 )  ( <= ( + Y11 80 ) Y8 )  )
( or ( <= ( + X9 91 ) X10 )  ( <= ( + X10 52 ) X9 )  ( <= ( + Y9 65 ) Y10 )  ( <= ( + Y10 40 ) Y9 )  )
( or ( <= ( + X9 91 ) X11 )  ( <= ( + X11 64 ) X9 )  ( <= ( + Y9 65 ) Y11 )  ( <= ( + Y11 80 ) Y9 )  )
( or ( <= ( + X10 52 ) X11 )  ( <= ( + X11 64 ) X10 )  ( <= ( + Y10 40 ) Y11 )  ( <= ( + Y11 80 ) Y10 )  )
( >= X0 0)
( <= ( + X0 96) Z)
( >= Y0 0)
( <= ( + Y0 36 ) 173)
( >= X1 0)
( <= ( + X1 86) Z)
( >= Y1 0)
( <= ( + Y1 34 ) 173)
( >= X2 0)
( <= ( + X2 48) Z)
( >= Y2 0)
( <= ( + Y2 61 ) 173)
( >= X3 0)
( <= ( + X3 37) Z)
( >= Y3 0)
( <= ( + Y3 20 ) 173)
( >= X4 0)
( <= ( + X4 4) Z)
( >= Y4 0)
( <= ( + Y4 62 ) 173)
( >= X5 0)
( <= ( + X5 56) Z)
( >= Y5 0)
( <= ( + Y5 81 ) 173)
( >= X6 0)
( <= ( + X6 50) Z)
( >= Y6 0)
( <= ( + Y6 99 ) 173)
( >= X7 0)
( <= ( + X7 5) Z)
( >= Y7 0)
( <= ( + Y7 91 ) 173)
( >= X8 0)
( <= ( + X8 45) Z)
( >= Y8 0)
( <= ( + Y8 54 ) 173)
( >= X9 0)
( <= ( + X9 91) Z)
( >= Y9 0)
( <= ( + Y9 65 ) 173)
( >= X10 0)
( <= ( + X10 52) Z)
( >= Y10 0)
( <= ( + Y10 40 ) 173)
( >= X11 0)
( <= ( + X11 64) Z)
( >= Y11 0)
( <= ( + Y11 80 ) 173)
) )
(minimize Z)
(check-sat)
